lattice_vector     -0.00000003      2.73831638      2.73831638
lattice_vector      2.73831641      0.00000001      2.73831640
lattice_vector      2.73831641      2.73831640      0.00000001
atom_frac       0.00000000     -0.00000000     -0.00000000 Si
atom_frac       0.25000000      0.25000000      0.25000000 Si
